4082954319177003023508,1,1,2,05,3,1,2,013,15,1,2,01,11,1,2,015,12,1,2,04,14,1,2,09,2,1,2,01,8,1,2,08,6,1,2,06,3,1,2,08,15,1,2,08,5,1,2,010,9,1,2,08,15,1,2,012,14,1,2,015,4,1,2,06,13,1,2,07,15,1,2,011,2,1,2,015,10,1,2,011,14,1,2,010,10,1,2,012,1,1,2,01,8,1,2,012,6,1,2,08,8,1,2,010,12,1,2,04,1,1,2,04,14,1,2,015,1,1,2,012,8,1,2,015,1,1,2,010,5,1,2,015,9,1,2,04,8,1,2,014,4,1,2,04,12,1,2,012,10,1,2,07,1,1,2,011,4,1,2,05,1,1,2,02,4,1,2,015,6,1,2,014,1,1,2,015,1,1,2,08,8,1,2,06,6,1,2,07,6,1,2,02,14,1,2,01,14,1,2,0